
******************************************************************************
This program contains Ipopt, a library for large-scale nonlinear optimization.
 Ipopt is released as open source code under the Eclipse Public License (EPL).
         For more information visit http://projects.coin-or.org/Ipopt
******************************************************************************

This is Ipopt version 3.12.6, running with linear solver ma57.

Number of nonzeros in equality constraint Jacobian...:        0
Number of nonzeros in inequality constraint Jacobian.:     4004
Number of nonzeros in Lagrangian Hessian.............:        0

Total number of variables............................:        4
                     variables with only lower bounds:        0
                variables with lower and upper bounds:        0
                     variables with only upper bounds:        0
Total number of equality constraints.................:        0
Total number of inequality constraints...............:     1002
        inequality constraints with only lower bounds:     1002
   inequality constraints with lower and upper bounds:        0
        inequality constraints with only upper bounds:        0

iter    objective    inf_pr   inf_du lg(mu)  ||d||  lg(rg) alpha_du alpha_pr  ls
   0  0.0000000e+00 8.41e-01 9.98e-01  -1.0 0.00e+00    -  0.00e+00 0.00e+00   0
   1  1.2064498e-01 0.00e+00 1.51e+01  -1.7 9.28e-01    -  6.17e-02 1.00e+00f  1
   2  1.4180301e-01 0.00e+00 4.64e-02  -1.7 2.53e-02    -  9.57e-01 1.00e+00f  1
   3  2.0723740e-01 0.00e+00 5.02e-02  -2.5 1.68e-01    -  6.50e-01 1.00e+00f  1
   4  3.7847633e-01 0.00e+00 3.43e-02  -2.5 1.82e-01    -  5.40e-01 1.00e+00f  1
   5  7.0447142e-01 0.00e+00 4.06e-03  -2.5 3.38e-01    -  7.47e-01 1.00e+00f  1
   6  4.9640425e-01 0.00e+00 1.50e-09  -3.8 2.34e-01    -  1.00e+00 1.00e+00f  1
   7  7.5993770e-03 0.00e+00 2.02e-07  -5.7 5.37e-01    -  1.00e+00 9.90e-01f  1
   8  7.5417140e-03 0.00e+00 9.35e-02  -8.6 1.31e-02    -  1.00e+00 1.10e-02f  1
   9  6.2790208e-03 0.00e+00 9.45e-02  -8.6 8.26e-03    -  1.00e+00 3.06e-01f  1
iter    objective    inf_pr   inf_du lg(mu)  ||d||  lg(rg) alpha_du alpha_pr  ls
  10  4.6692087e-03 0.00e+00 4.19e-02  -8.6 5.23e-03    -  1.00e+00 7.00e-01f  1
  11  4.6678235e-03 0.00e+00 4.17e-02  -8.6 2.43e-03    -  7.45e-03 5.75e-03f  1
  12  4.5873290e-03 0.00e+00 1.74e-01  -8.6 2.45e-03    -  3.94e-02 3.33e-01f  1
  13  4.5051036e-03 0.00e+00 1.45e-01  -8.6 1.47e-03    -  2.09e-01 5.71e-01f  1
  14  4.5050745e-03 0.00e+00 2.70e-01  -8.6 4.40e-06    -  9.88e-01 1.45e-01f  1
  15  4.5050702e-03 0.00e+00 6.20e-02  -8.6 3.20e-07    -  8.20e-01 1.00e+00f  1
  16  4.5050536e-03 0.00e+00 2.51e-14  -8.6 1.09e-07    -  1.00e+00 1.00e+00h  1

Number of Iterations....: 16

                                   (scaled)                 (unscaled)
Objective...............:   4.5050536227455055e-03    4.5050536227455055e-03
Dual infeasibility......:   2.5091040356528538e-14    2.5091040356528538e-14
Constraint violation....:   0.0000000000000000e+00    0.0000000000000000e+00
Complementarity.........:   2.8473690980195944e-09    2.8473690980195944e-09
Overall NLP error.......:   2.8473690980195944e-09    2.8473690980195944e-09


Number of objective function evaluations             = 17
Number of objective gradient evaluations             = 17
Number of equality constraint evaluations            = 0
Number of inequality constraint evaluations          = 17
Number of equality constraint Jacobian evaluations   = 0
Number of inequality constraint Jacobian evaluations = 17
Number of Lagrangian Hessian evaluations             = 16
Total CPU secs in IPOPT (w/o function evaluations)   =      0.010
Total CPU secs in NLP function evaluations           =      0.007

EXIT: Optimal Solution Found.

************************ CUTEst statistics ************************


 Package used            :  IPOPT
 Problem                 :  OET3      
 # variables             =               4
 # constraints           =            1002
 # objective functions   =        0.3500000E+02
 # objective gradients   =        0.1800000E+02
 # objective Hessians    =        0.1700000E+02
 # Hessian-vector prdct  =        0.0000000E+00
 # constraints functions =        0.3600000E+02
 # constraints gradients =        0.1900000E+02
 # constraints Hessians  =        0.1700000E+02
 Exit code               =               0
 Final f                 =   0.4505054E-02
 Set up time             =            0.01 seconds
 Solve time              =            0.08 seconds


******************************************************************

System Time =       0.0199999996 s.
